c Sudoku solution
p cnf 729 0
148 0
191 0
252 0
267 0
289 0
296 0
337 0
345 0
378 0
383 0
424 0
443 0
513 0
555 0
597 0
629 0
635 0
646 0
668 0
731 0
749 0
762 0
542 0
798 0
834 0
873 0
693 0
966 0
865 0
163 0
981 0
417 0
657 0
564 0
579 0
521 0
612 0
671 0
684 0
311 0
241 0
369 0
847 0
851 0
944 0
753 0
958 0
774 0
459 0
461 0
275 0
394 0
214 0
154 0
356 0
322 0
818 0
899 0
826 0
715 0
919 0
727 0
786 0
882 0
995 0
977 0
125 0
116 0
139 0
923 0
932 0
228 0
233 0
476 0
588 0
438 0
536 0
172 0
187 0
485 0
492 0
